1598.0 21777.0 1348.0 
1721.0 21814.0 127.0 
1639.0 21732.0 296.0 
1661.0 22103.0 291.0 
1661.0 22195.0 290.0 
1723.0 22037.0 21.0 
1714.0 21900.0 55.0 
1736.0 21470.0 116.0 
1643.0 21591.0 416.0 
1598.0 21777.0 1348.0 
1736.0 21470.0 116.0 
1635.0 22131.0 713.0 
1708.0 22051.0 25.0 
1728.0 21779.0 103.0 
1636.0 21943.0 723.0 
1666.0 21701.0 406.0 
1736.0 21470.0 116.0 
1780.0 21425.0 884.0 
1726.0 21842.0 0.0 
1739.0 21559.0 0.0 
1706.0 22063.0 25.0 
1688.0 21665.0 213.0 
1683.0 21678.0 363.0 
1722.0 21528.0 116.0 
1683.0 21592.0 374.0 
1738.0 21748.0 84.0 
1636.0 22086.0 715.0 
1609.0 21775.0 738.0 
1691.0 21442.0 213.0 
1726.0 21842.0 0.0 
1683.0 21718.0 254.0 
